job_count = 16 ;
duration = [|9, 18, 6|19, 19, 9|19, 12, 9|13, 11, 8|29, 11, 1|26, 5, 5|29, 7, 4|24, 9, 8|22, 4, 1|23, 3, 8|23, 12, 5|18, 18, 5|25, 15, 5|6, 11, 8|17, 2, 2|13, 12, 1|] ;
machine_count = 3 ;
cost = [|10, 35, 34|10, 25, 30|11, 37, 55|18, 29, 54|13, 34, 59|17, 37, 54|17, 23, 41|17, 20, 32|16, 27, 40|11, 32, 34|15, 20, 55|12, 31, 45|13, 36, 44|16, 27, 43|12, 25, 55|11, 34, 33|] ;
deadline = [36, 36, 36, 36, 36, 36, 36, 36, 36, 36, 36, 36, 36, 36, 36, 36] ;
release = [0, 0, 0, 0, 0, 0, 0, 0, 0, 0, 0, 0, 0, 0, 0, 0] ;
resource = [|2, 2, 2|1, 1, 1|6, 6, 6|4, 4, 4|7, 7, 7|7, 7, 7|2, 2, 2|1, 1, 1|4, 4, 4|2, 2, 2|2, 2, 2|1, 1, 1|5, 5, 5|1, 1, 1|6, 6, 6|7, 7, 7|] ;
capacities = [10, 10, 10] ;
